p cnf 210 564
1 -2 0
2 -1 0
3 -4 0
4 -3 0
5 -6 0
6 -5 0
7 -8 0
8 -7 0
9 -10 0
10 -9 0
11 -12 0
12 -11 0
13 -14 0
14 -13 0
15 -16 0
16 -15 0
17 -18 0
18 -17 0
19 -20 0
20 -19 0
21 22 0
23 22 0
-21 -23 -22 0
-24 22 -25 0
24 -22 -25 0
25 -22 -24 0
24 22 25 0
-25 0
26 27 0
28 27 0
-26 -28 -27 0
-23 27 -29 0
23 -27 -29 0
29 -27 -23 0
23 27 29 0
-29 0
28 -30 0
30 -28 0
31 32 0
33 32 0
-31 -33 -32 0
-34 32 -35 0
34 -32 -35 0
35 -32 -34 0
34 32 35 0
-35 0
36 37 0
38 37 0
-36 -38 -37 0
-33 37 -39 0
33 -37 -39 0
39 -37 -33 0
33 37 39 0
-39 0
31 40 0
36 40 0
41 40 0
-31 -36 -41 -40 0
-38 40 -42 0
38 -40 -42 0
42 -40 -38 0
38 40 42 0
-42 0
43 44 0
45 44 0
-43 -45 -44 0
-46 44 -47 0
46 -44 -47 0
47 -44 -46 0
46 44 47 0
-47 0
48 49 0
50 49 0
-48 -50 -49 0
-45 49 -51 0
45 -49 -51 0
51 -49 -45 0
45 49 51 0
-51 0
52 53 0
54 53 0
-52 -54 -53 0
-50 53 -55 0
50 -53 -55 0
55 -53 -50 0
50 53 55 0
-55 0
48 56 0
52 56 0
57 56 0
-48 -52 -57 -56 0
-54 56 -58 0
54 -56 -58 0
58 -56 -54 0
54 56 58 0
-58 0
59 60 0
61 60 0
-59 -61 -60 0
-62 60 -63 0
62 -60 -63 0
63 -60 -62 0
62 60 63 0
-63 0
64 65 0
66 65 0
-64 -66 -65 0
-61 65 -67 0
61 -65 -67 0
67 -65 -61 0
61 65 67 0
-67 0
68 69 0
70 69 0
-68 -70 -69 0
-66 69 -71 0
66 -69 -71 0
71 -69 -66 0
66 69 71 0
-71 0
68 72 0
73 72 0
-68 -73 -72 0
-70 72 -74 0
70 -72 -74 0
74 -72 -70 0
70 72 74 0
-74 0
75 76 0
77 76 0
-75 -77 -76 0
-78 76 -79 0
78 -76 -79 0
79 -76 -78 0
78 76 79 0
-79 0
80 81 0
82 81 0
-80 -82 -81 0
-77 81 -83 0
77 -81 -83 0
83 -81 -77 0
77 81 83 0
-83 0
84 85 0
86 85 0
-84 -86 -85 0
-82 85 -87 0
82 -85 -87 0
87 -85 -82 0
82 85 87 0
-87 0
88 89 0
90 89 0
-88 -90 -89 0
-86 89 -91 0
86 -89 -91 0
91 -89 -86 0
86 89 91 0
-91 0
92 93 0
94 93 0
-92 -94 -93 0
-90 93 -95 0
90 -93 -95 0
95 -93 -90 0
90 93 95 0
-95 0
96 97 0
98 97 0
-96 -98 -97 0
-94 97 -99 0
94 -97 -99 0
99 -97 -94 0
94 97 99 0
-99 0
100 101 0
102 101 0
-100 -102 -101 0
-98 101 -103 0
98 -101 -103 0
103 -101 -98 0
98 101 103 0
-103 0
92 104 0
96 104 0
100 104 0
105 104 0
-106 0
-102 104 -107 0
102 -104 -107 0
107 -104 -102 0
102 104 107 0
-107 0
108 109 0
110 109 0
-108 -110 -109 0
-111 109 -112 0
111 -109 -112 0
112 -109 -111 0
111 109 112 0
-112 0
113 114 0
115 114 0
-113 -115 -114 0
-110 114 -116 0
110 -114 -116 0
116 -114 -110 0
110 114 116 0
-116 0
117 118 0
119 118 0
-117 -119 -118 0
-115 118 -120 0
115 -118 -120 0
120 -118 -115 0
115 118 120 0
-120 0
121 122 0
123 122 0
-121 -123 -122 0
-119 122 -124 0
119 -122 -124 0
124 -122 -119 0
119 122 124 0
-124 0
125 126 0
127 126 0
-125 -127 -126 0
-123 126 -128 0
123 -126 -128 0
128 -126 -123 0
123 126 128 0
-128 0
117 129 0
121 129 0
125 129 0
130 129 0
-131 0
-127 129 -132 0
127 -129 -132 0
132 -129 -127 0
127 129 132 0
-132 0
133 134 0
135 134 0
-133 -135 -134 0
-136 134 -137 0
136 -134 -137 0
137 -134 -136 0
136 134 137 0
-137 0
138 139 0
140 139 0
-138 -140 -139 0
-135 139 -141 0
135 -139 -141 0
141 -139 -135 0
135 139 141 0
-141 0
142 143 0
144 143 0
-142 -144 -143 0
-140 143 -145 0
140 -143 -145 0
145 -143 -140 0
140 143 145 0
-145 0
146 147 0
148 147 0
-146 -148 -147 0
-144 147 -149 0
144 -147 -149 0
149 -147 -144 0
144 147 149 0
-149 0
150 151 0
152 151 0
-150 -152 -151 0
-148 151 -153 0
148 -151 -153 0
153 -151 -148 0
148 151 153 0
-153 0
154 155 0
156 155 0
-154 -156 -155 0
-152 155 -157 0
152 -155 -157 0
157 -155 -152 0
152 155 157 0
-157 0
146 158 0
150 158 0
154 158 0
159 158 0
-160 0
-156 158 -161 0
156 -158 -161 0
161 -158 -156 0
156 158 161 0
-161 0
162 163 0
164 163 0
-162 -164 -163 0
-165 163 -166 0
165 -163 -166 0
166 -163 -165 0
165 163 166 0
-166 0
164 -167 0
167 -164 0
168 169 0
170 169 0
-168 -170 -169 0
-171 169 -172 0
171 -169 -172 0
172 -169 -171 0
171 169 172 0
-172 0
173 174 0
175 174 0
-173 -175 -174 0
-170 174 -176 0
170 -174 -176 0
176 -174 -170 0
170 174 176 0
-176 0
177 178 0
179 178 0
-177 -179 -178 0
-175 178 -180 0
175 -178 -180 0
180 -178 -175 0
175 178 180 0
-180 0
181 182 0
183 182 0
-181 -183 -182 0
-179 182 -184 0
179 -182 -184 0
184 -182 -179 0
179 182 184 0
-184 0
185 186 0
187 186 0
-185 -187 -186 0
-183 186 -188 0
183 -186 -188 0
188 -186 -183 0
183 186 188 0
-188 0
189 190 0
191 190 0
-189 -191 -190 0
-187 190 -192 0
187 -190 -192 0
192 -190 -187 0
187 190 192 0
-192 0
181 193 0
185 193 0
189 193 0
194 193 0
-195 0
-191 193 -196 0
191 -193 -196 0
196 -193 -191 0
191 193 196 0
-196 0
197 198 0
199 198 0
-197 -199 -198 0
-200 198 -201 0
200 -198 -201 0
201 -198 -200 0
200 198 201 0
-201 0
202 203 0
204 203 0
-202 -204 -203 0
-199 203 -205 0
199 -203 -205 0
205 -203 -199 0
199 203 205 0
-205 0
206 207 0
208 207 0
-206 -208 -207 0
-204 207 -209 0
204 -207 -209 0
209 -207 -204 0
204 207 209 0
-209 0
208 -210 0
210 -208 0
1 0
3 0
5 0
7 0
9 0
11 0
13 0
15 0
17 0
19 0
-24 0
-34 0
-46 0
-62 0
-78 0
-111 0
-136 0
-165 0
-171 0
-200 0
2 -4 0
4 -2 0
2 -6 0
6 -2 0
2 -8 0
8 -2 0
2 -10 0
10 -2 0
2 -12 0
12 -2 0
2 -14 0
14 -2 0
2 -16 0
16 -2 0
2 -18 0
18 -2 0
2 -20 0
20 -2 0
2 -30 0
30 -2 0
4 -6 0
6 -4 0
4 -8 0
8 -4 0
4 -10 0
10 -4 0
4 -12 0
12 -4 0
4 -14 0
14 -4 0
4 -16 0
16 -4 0
4 -18 0
18 -4 0
4 -20 0
20 -4 0
4 -30 0
30 -4 0
6 -8 0
8 -6 0
6 -10 0
10 -6 0
6 -12 0
12 -6 0
6 -14 0
14 -6 0
6 -16 0
16 -6 0
6 -18 0
18 -6 0
6 -20 0
20 -6 0
6 -30 0
30 -6 0
8 -10 0
10 -8 0
8 -12 0
12 -8 0
8 -14 0
14 -8 0
8 -16 0
16 -8 0
8 -18 0
18 -8 0
8 -20 0
20 -8 0
8 -30 0
30 -8 0
10 -12 0
12 -10 0
10 -14 0
14 -10 0
10 -16 0
16 -10 0
10 -18 0
18 -10 0
10 -20 0
20 -10 0
10 -30 0
30 -10 0
12 -14 0
14 -12 0
12 -16 0
16 -12 0
12 -18 0
18 -12 0
12 -20 0
20 -12 0
12 -30 0
30 -12 0
14 -16 0
16 -14 0
14 -18 0
18 -14 0
14 -20 0
20 -14 0
14 -30 0
30 -14 0
16 -18 0
18 -16 0
16 -20 0
20 -16 0
16 -30 0
30 -16 0
18 -20 0
20 -18 0
18 -30 0
30 -18 0
20 -30 0
30 -20 0
31 -52 0
52 -31 0
36 -57 0
57 -36 0
41 -48 0
48 -41 0
92 -130 0
130 -92 0
96 -117 0
117 -96 0
100 -121 0
121 -100 0
105 -125 0
125 -105 0
92 -194 0
194 -92 0
96 -181 0
181 -96 0
100 -185 0
185 -100 0
105 -189 0
189 -105 0
108 -173 0
173 -108 0
113 -177 0
177 -113 0
117 -181 0
181 -117 0
121 -185 0
185 -121 0
125 -189 0
189 -125 0
130 -194 0
194 -130 0
162 -206 0
206 -162 0
167 -210 0
210 -167 0
